# Objective value = 40294
z0 1
z1 0
z2 1
z3 0
z4 0
z5 0
z6 1
z7 0
z8 0
z9 0
z10 0
z11 1
z12 0
z13 0
z14 1
z15 0
z16 1
z17 1
z18 0
z19 0
z20 1
z21 0
z22 1
z23 0
z24 0
z25 0
z26 1
z27 0
z28 0
z29 1
z30 0
z31 0
z32 1
z33 0
z34 0
z35 1
z36 0
z37 0
z38 0
z39 0
z40 1
z41 0
z42 0
z43 0
z44 0
z45 0
z46 0
z47 1
z48 0
z49 0
z50 1
z51 0
z52 1
z53 1
z54 0
z55 0
z56 0
z57 0
z58 1
z59 0
z60 0
z61 0
z62 1
z63 0
z64 0
z65 0
z66 0
z67 0
z68 0
z69 0
z70 0
z71 0
z72 0
z73 1
z74 1
z75 0
z76 1
z77 0
z78 0
z79 0
z80 0
z81 0
z82 1
z83 0
z84 0
z85 0
z86 1
z87 1
z88 0
z89 0
z90 0
z91 0
z92 0
z93 0
z94 0
z95 0
z96 0
z97 0
z98 0
z99 0
z100 0
z101 1
z102 0
z103 0
z104 0
z105 0
z106 0
z107 1
z108 0
z109 1
z110 0
z111 0
z112 1
z113 1
z114 0
z115 0
z116 1
z117 0
z118 0
z119 0
z120 0
z121 0
z122 0
z123 0
z124 1
z125 1
z126 0
z127 0
z128 0
z129 0
z130 0
z131 1
z132 0
z133 0
z134 0
z135 1
z136 0
z137 0
z138 0
z139 0
z140 0
z141 0
z142 0
z143 0
z144 0
z145 0
z146 0
z147 0
z148 0
z149 0
z150 0
z151 1
z152 1
z153 0
z154 0
z155 0
z156 0
z157 0
z158 0
z159 1
z160 1
z161 0
z162 0
z163 1
z164 0
z165 1
z166 0
z167 0
z168 0
z169 0
z170 1
z171 0
z172 1
z173 0
z174 0
z175 0
z176 0
z177 0
z178 0
z179 1
z180 1
z181 1
z182 0
z183 0
z184 0
z185 1
z186 0
z187 0
z188 0
z189 0
z190 0
z191 1
z192 0
z193 0
z194 0
z195 0
z196 0
z197 1
z198 1
z199 0
z200 0
z201 0
z202 0
z203 0
z204 1
z205 1
z206 0
z207 1
z208 1
z209 0
z210 0
z211 0
z212 0
z213 0
z214 0
z215 0
z216 0
z217 1
z218 0
z219 0
z220 0
z221 0
z222 0
z223 1
z224 0
z225 0
z226 1
z227 0
z228 0
z229 0
z230 0
z231 1
z232 0
z233 0
z234 0
z235 0
z236 0
z237 0
z238 0
z239 0
z240 1
z241 0
z242 0
z243 0
z244 0
z245 1
z246 0
z247 0
z248 0
z249 1
